c ---- [ banner ] ------------------------------------------------------------
c
c KISSAT SAT Solver
c Copyright (c) 2019-2021 Armin Biere JKU Linz
c 
c Version 2.0.1 02cd69626a53e93e09286b1978ccb5d6bec58b8e
c Apple clang version 13.1.6 (clang-1316.0.21.2) -W -Wall -O3 -DNDEBUG
c Thu Mar 31 15:34:51 EDT 2022 Darwin Randals-Macbook-Pro.local 21.2.0 arm64
c
c ---- [ proving ] -----------------------------------------------------------
c
c opened and writing proof to DRAT file:
c
c   chew-34-123458.drat
c
c ---- [ parsing ] -----------------------------------------------------------
c
c opened and reading DIMACS file:
c
c   chew-34-123458.cnf
c
c parsed 'p cnf 96 256' header
c closing input after reading 3141 bytes (3 KB)
c finished parsing after 0.00 seconds
c
c ---- [ options ] -----------------------------------------------------------
c
c --stable=0                       (different from default '1')
c
c ---- [ solving ] -----------------------------------------------------------
c
c  seconds switched rate      trail  variables
c         MB reductions conflicts glue   remaining
c          level restarts redundant irredundant
c
c *  0.00  0 0 0 0  0 0   0   0 0% 0 256 96 99%
c {  0.00  0 0 0 0  0 0   0   0 0% 0 256 96 99%
c -  0.00  0 29 0 1  2 2 302  68 92% 13 256 96 99%
c u  0.00  0 28 0 1  2 1 589 208 88% 9 256 96 99%
c -  0.01  0 26 0 2 26 2 1303 276 77% 9 256 96 99%
c -  0.01  0 24 0 3 26 2 2718 726 70% 8 256 96 99%
c e  0.02  0 24 0 3 26 2 2940 831 69% 8 240 63 65%
c e  0.02  0 24 0 3 26 2 2940 831 69% 8 240 61 63%
c -  0.02  0 24 0 4 495 5 4452 219 69% 9 240 61 63%
c ^  0.03  0 24 0 4 927 6 5816 801 67% 9 240 61 63%
c -  0.03  0 24 0 5 1117 7 6455 378 66% 10 240 61 63%
c -  0.05  0 23 0 6 1546 7 8693 535 65% 10 240 61 63%
c u  0.05  0 23 0 6 1546 6 10471 1230 67% 10 240 61 63%
c -  0.06  0 23 0 7 1546 5 11143 888 68% 10 240 61 63%
c ^  0.06  0 23 0 7 1794 6 12050 1272 67% 10 240 61 63%
c -  0.07  0 23 0 8 2224 6 13790 1010 66% 10 240 61 63%
c u  0.07  0 23 0 8 2224 6 14531 1292 66% 10 240 61 63%
c -  0.09  0 22 0 9 2225 5 16618 1031 65% 10 240 61 63%
c -  0.10  0 22 0 10 2534 5 19620 1364 62% 10 240 61 63%
c ^  0.11  0 22 0 10 3253 5 22089 2460 62% 10 240 61 63%
c
c  seconds  switched    rate          trail   variables
c         MB  reductions  conflicts       glue    remaining
c          level   restarts    redundant  irredundant
c
c -  0.12  0 22 0 11 3457 6 22783 1367 61% 10 240 61 63%
c u  0.13  0 22 0 11 3589 5 25032 2222 62% 10 240 61 63%
c -  0.14  0 22 0 12 3589 5 26100 1491 62% 10 240 61 63%
c -  0.16  0 21 0 13 3589 5 29564 1766 60% 10 240 61 63%
c -  0.18  0 21 0 14 3589 4 33169 1819 59% 10 240 61 63%
c e  0.19  0 20 0 14 3589 4 36356 2965 59% 10 248 59 61%
c ^  0.19  0 20 0 14 3589 4 36356 2965 59% 10 248 59 61%
c -  0.19  0 20 0 15 3589 4 36911 918 60% 10 248 59 61%
c u  0.20  0 21 0 15 3798 4 38913 1770 60% 10 248 59 61%
c -  0.22  0 21 0 16 4266 4 40783 1282 60% 10 248 59 61%
c -  0.24  0 21 0 17 4501 4 44783 1870 62% 10 248 59 61%
c -  0.26  0 21 0 18 4764 4 48908 2180 61% 10 248 59 61%
c -  0.28  0 20 0 19 5417 4 53151 2131 61% 10 248 59 61%
c ^  0.29  0 20 0 19 6099 4 55455 3127 60% 10 248 59 61%
c -  0.31  0 21 0 20 6698 4 57511 1494 60% 10 248 59 61%
c -  0.33  0 21 0 21 8010 5 61983 1078 59% 10 248 59 61%
c -  0.36  0 21 0 22 8974 5 66566 1110 60% 10 248 59 61%
c -  0.38  0 21 0 23 8974 4 71258 1539 61% 10 248 59 61%
c -  0.41  0 20 0 24 8974 4 76055 1855 60% 10 248 59 61%
c e  0.43  0 20 0 24 9326 4 79586 3095 60% 10 456 46 47%
c
c  seconds  switched    rate          trail   variables
c         MB  reductions  conflicts       glue    remaining
c          level   restarts    redundant  irredundant
c
c !  0.43  0 20 0 24 9326 4 79586 3095 60% 10 456 46 47%
c -  0.44  0 20 0 25 9738 4 80954 402 60% 10 456 46 47%
c -  0.46  0 21 0 26 10535 4 85954 991 61% 10 456 46 47%
c u  0.48  0 21 0 26 11186 5 89735 2667 61% 10 456 46 47%
c -  0.49  0 21 0 27 11411 5 91055 1183 61% 10 456 46 47%
c -  0.52  0 21 0 28 12288 5 96252 1225 61% 11 456 46 47%
c -  0.55  0 21 0 29 13243 5 101543 1143 61% 11 456 46 47%
c -  0.59  0 21 0 30 14160 5 106928 1231 61% 11 456 46 47%
c -  0.62  0 21 0 31 15088 5 112407 1210 61% 11 456 46 47%
c -  0.65  0 21 0 32 16035 5 117976 1153 61% 11 456 46 47%
c -  0.69  0 21 0 33 16993 5 123633 1152 61% 12 456 46 47%
c -  0.72  0 21 0 34 18001 5 129379 1027 61% 12 456 46 47%
c -  0.76  0 21 0 35 18965 5 135210 1162 61% 12 456 46 47%
c -  0.79  0 21 0 36 19007 5 141127 1739 60% 12 456 46 47%
c -  0.82  0 21 0 37 19007 5 147128 1871 60% 12 456 46 47%
c -  0.85  0 20 0 38 19007 4 153210 1398 60% 12 456 46 47%
c -  0.89  0 20 0 39 19007 4 159375 1488 60% 12 456 46 47%
c -  0.92  0 20 0 40 19007 4 165620 2372 60% 11 456 46 47%
c -  0.96  0 19 0 41 19007 4 171946 2689 59% 11 456 46 47%
c -  1.00  0 20 0 42 20032 4 178350 2823 59% 12 456 46 47%
c
c  seconds  switched     rate           trail   variables
c         MB  reductions   conflicts        glue    remaining
c          level   restarts      redundant  irredundant
c
c u  1.02  0 20 0 42 20556 4 181521 4265 59% 12 456 46 47%
c v  1.02  0 20 0 42 20556 4 181521 4265 59% 12 456 46 47%
c -  1.05  0 20 0 43 21124 4 184832 2300 59% 12 456 46 47%
c -  1.09  0 20 0 44 22245 4 191392 1983 59% 12 456 46 47%
c -  1.13  0 20 0 45 22538 4 198025 2331 59% 12 456 46 47%
c u  1.17  0 19 0 45 22538 4 203604 4116 59% 12 456 46 47%
c -  1.18  0 19 0 46 22538 4 204733 2633 59% 12 456 46 47%
c -  1.21  0 19 0 47 22538 4 211515 2567 58% 12 456 46 47%
c -  1.25  0 19 0 48 22538 3 218370 2372 58% 12 456 46 47%
c -  1.29  0 19 0 49 23501 4 225298 2350 59% 12 456 46 47%
c u  1.30  0 19 0 49 23784 4 226964 3118 59% 12 456 46 47%
c -  1.34  0 19 0 50 24686 4 232299 2072 59% 12 456 46 47%
c -  1.38  0 19 0 51 25917 4 239372 1939 59% 12 456 46 47%
c -  1.43  0 19 0 52 26088 4 246514 2167 59% 12 456 46 47%
c u  1.45  0 19 0 52 26088 4 251611 3683 59% 12 456 46 47%
c v  1.46  0 19 0 52 26088 4 251611 3683 59% 12 456 46 47%
c -  1.47  0 19 0 53 26088 4 253725 2673 59% 12 456 46 47%
c -  1.51  0 19 0 54 26088 3 261005 3111 59% 12 456 46 47%
c -  1.56  0 19 0 55 26088 3 268353 3090 58% 12 456 46 47%
c -  1.61  0 18 0 56 26088 3 275769 3750 59% 11 456 46 47%
c
c  seconds  switched     rate           trail   variables
c         MB  reductions   conflicts        glue    remaining
c          level   restarts      redundant  irredundant
c
c u  1.62  0 18 0 56 26088 3 277562 4498 59% 11 456 46 47%
c -  1.66  0 19 0 57 26815 3 283253 3950 59% 11 456 46 47%
c -  1.72  0 19 0 58 28124 3 290804 3302 59% 12 456 46 47%
c -  1.77  0 19 0 59 29467 3 298422 2507 59% 12 456 46 47%
c u  1.81  0 19 0 59 30355 3 304830 5254 59% 12 456 46 47%
c v  1.81  0 19 0 59 30355 3 304833 5254 59% 12 456 46 47%
c -  1.82  0 19 0 60 30386 3 306103 2322 59% 12 456 46 47%
c -  1.87  0 19 0 61 31225 3 313849 2457 59% 12 456 46 47%
c -  1.92  0 19 0 62 31580 3 321659 2305 59% 12 456 46 47%
c -  1.97  0 19 0 63 31613 3 329534 2356 59% 12 456 46 47%
c u  1.99  0 19 0 63 31613 3 333420 3640 60% 12 456 46 47%
c -  2.01  0 19 0 64 31613 3 337471 3098 59% 12 456 46 47%
c -  2.07  0 19 0 65 32834 3 345471 3345 59% 12 456 46 47%
c -  2.12  0 19 0 66 34250 3 353534 3003 59% 12 456 46 47%
c -  2.17  0 19 0 67 35670 3 361659 2749 59% 12 456 46 47%
c u  2.18  0 19 0 67 35719 3 363358 3174 59% 12 456 46 47%
c v  2.18  0 19 0 67 35719 3 363362 3171 59% 12 456 46 47%
c -  2.22  0 19 0 68 35719 3 369845 2938 59% 12 456 46 47%
c -  2.26  0 19 0 69 35719 3 378093 3395 59% 12 456 46 47%
c -  2.31  0 18 0 70 35719 3 386401 3698 58% 12 456 46 47%
c
c  seconds  switched     rate           trail   variables
c         MB  reductions   conflicts        glue    remaining
c          level   restarts      redundant  irredundant
c
c u  2.36  0 18 0 70 35719 3 394644 6107 58% 12 456 46 47%
c v  2.36  0 18 0 70 35719 3 394644 6106 58% 12 456 46 47%
c -  2.37  0 18 0 71 35721 3 394767 3824 58% 12 456 46 47%
c -  2.42  0 18 0 72 36566 3 403193 3665 58% 12 456 46 47%
c -  2.48  0 18 0 73 37076 3 411679 3996 58% 12 456 46 47%
c -  2.54  0 18 0 74 38579 3 420224 3944 58% 12 456 46 47%
c u  2.58  0 19 0 74 39812 3 427270 6926 58% 12 456 46 47%
c v  2.58  0 19 0 74 39812 3 427270 6923 58% 12 456 46 47%
c -  2.60  0 19 0 75 40086 3 428828 3243 58% 12 456 46 47%
c -  2.65  0 18 0 76 40171 3 437490 3803 58% 12 456 46 47%
c -  2.71  0 18 0 77 40171 3 446207 4711 58% 12 456 46 47%
c -  2.77  0 18 0 78 40485 3 454982 5386 58% 11 456 46 47%
c u  2.80  0 18 0 78 41583 3 461261 8016 58% 12 456 46 47%
c -  2.83  0 18 0 79 42036 3 463814 4705 58% 12 456 46 47%
c -  2.89  0 18 0 80 42332 3 472703 4154 57% 12 456 46 47%
c -  2.94  0 18 0 81 42511 3 481648 4212 57% 11 456 46 47%
c -  2.99  0 18 0 82 42558 3 490649 5441 57% 11 456 46 47%
c u  3.03  0 18 0 82 42558 3 496631 7752 57% 11 456 46 47%
c v  3.03  0 18 0 82 42558 3 496631 7751 57% 11 456 46 47%
c -  3.06  0 18 0 83 43009 3 499706 4931 57% 11 456 46 47%
c
c  seconds  switched     rate           trail   variables
c         MB  reductions   conflicts        glue    remaining
c          level   restarts      redundant  irredundant
c
c -  3.12  0 18 0 84 44622 3 508817 4414 57% 12 456 46 47%
c -  3.18  0 18 0 85 46226 3 517983 3706 57% 12 456 46 47%
c -  3.24  0 18 0 86 47888 3 527202 3176 57% 12 456 46 47%
c u  3.27  0 18 0 86 48954 3 533391 5890 57% 12 456 46 47%
c v  3.28  0 18 0 86 48954 3 533393 5888 57% 12 456 46 47%
c -  3.30  0 18 0 87 49489 3 536475 3039 57% 12 456 46 47%
c -  3.36  0 18 0 88 50090 3 545804 3031 57% 12 456 46 47%
c -  3.41  0 18 0 89 50090 3 555185 3021 57% 12 456 46 47%
c -  3.46  0 18 0 90 50090 3 564620 3442 57% 12 456 46 47%
c u  3.50  0 18 0 90 50090 3 571533 5745 57% 12 456 46 47%
c -  3.52  0 18 0 91 50090 3 574108 3802 57% 12 456 46 47%
c -  3.58  0 18 0 92 51514 3 583648 3781 57% 12 456 46 47%
c -  3.64  0 18 0 93 52981 3 593240 3220 57% 12 456 46 47%
c -  3.70  0 18 0 94 54658 3 602885 2885 57% 12 456 46 47%
c u  3.75  0 18 0 94 56064 3 611098 6532 57% 12 456 46 47%
c v  3.75  0 18 0 94 56064 3 611099 6531 57% 12 456 46 47%
c -  3.77  0 18 0 95 56326 3 612580 2770 57% 12 456 46 47%
c -  3.83  0 18 0 96 56351 3 622328 3854 57% 12 456 46 47%
c -  3.89  0 18 0 97 56766 3 632127 4639 57% 12 456 46 47%
c -  3.96  0 18 0 98 58493 3 641977 4265 57% 12 456 46 47%
c
c  seconds  switched     rate           trail   variables
c         MB  reductions   conflicts        glue    remaining
c          level   restarts      redundant  irredundant
c
c -  4.03  0 18 0 99 58493 3 651878 4201 57% 12 456 46 47%
c u  4.03  0 18 0 99 58493 3 652149 4228 57% 12 456 46 47%
c v  4.03  0 18 0 99 58493 3 652149 4223 57% 12 456 46 47%
c -  4.09  0 18 0 100 58493 3 661828 4093 57% 12 456 46 47%
c -  4.15  0 18 0 101 58900 3 671830 3360 56% 12 456 46 47%
c -  4.21  0 18 0 102 60451 3 681879 3588 56% 12 456 46 47%
c -  4.27  0 18 0 103 60757 3 691980 3973 57% 12 456 46 47%
c u  4.29  0 18 0 103 60888 3 694571 5013 57% 12 456 46 47%
c -  4.34  0 18 0 104 61491 3 702129 4704 57% 12 456 46 47%
c -  4.41  0 18 0 105 62902 3 712328 4369 57% 12 456 46 47%
c -  4.48  0 18 0 106 64697 3 722574 3692 57% 12 456 46 47%
c -  4.54  0 19 0 107 66499 3 732871 3389 57% 12 456 46 47%
c u  4.58  0 19 0 107 67467 3 738404 5739 57% 12 456 46 47%
c v  4.58  0 19 0 107 67467 3 738404 5738 57% 12 456 46 47%
c -  4.62  0 19 0 108 68067 3 743215 3222 57% 12 456 46 47%
c -  4.68  0 18 0 109 68284 3 753609 3041 57% 12 456 46 47%
c -  4.74  0 18 0 110 68284 3 764049 2814 56% 12 456 46 47%
c -  4.79  0 18 0 111 68284 3 774537 2716 56% 12 456 46 47%
c u  4.85  0 18 0 111 68284 3 783660 5686 56% 12 456 46 47%
c -  4.86  0 18 0 112 68332 3 785073 3009 56% 12 456 46 47%
c
c  seconds  switched      rate           trail   variables
c         MB  reductions    conflicts        glue    remaining
c          level    restarts      redundant  irredundant
c
c -  4.93  0 18 0 113 68522 3 795657 3337 56% 12 456 46 47%
c -  4.99  0 18 0 114 68522 3 806287 2983 56% 12 456 46 47%
c -  5.05  0 17 0 115 68522 3 816964 2778 56% 12 456 46 47%
c -  5.11  0 17 0 116 68522 3 827689 2813 56% 12 456 46 47%
c u  5.12  0 17 0 116 68522 3 830359 3621 56% 12 456 46 47%
c v  5.12  0 17 0 116 68522 3 830359 3619 56% 12 456 46 47%
c -  5.17  0 17 0 117 68522 3 838460 3456 56% 12 456 46 47%
c -  5.25  0 17 0 118 69468 3 849278 3757 56% 12 456 46 47%
c -  5.32  0 17 0 119 71360 3 860140 3922 56% 12 456 46 47%
c -  5.40  0 17 0 120 72411 3 871049 4312 56% 12 456 46 47%
c u  5.45  0 17 0 120 73216 3 878603 7219 56% 12 456 46 47%
c v  5.45  0 17 0 120 73216 3 878603 7219 56% 12 456 46 47%
c -  5.48  0 17 0 121 73812 3 882004 4192 56% 12 456 46 47%
c -  5.55  0 17 0 122 74241 3 893006 3871 56% 12 456 46 47%
c -  5.61  0 17 0 123 74241 3 904053 3764 56% 12 456 46 47%
c -  5.68  0 17 0 124 75227 3 915144 4119 56% 12 456 46 47%
c -  5.76  0 17 0 125 75937 3 926280 4153 56% 12 456 46 47%
c u  5.78  0 17 0 125 75937 3 928219 4768 56% 12 456 46 47%
c v  5.78  0 17 0 125 75937 3 928220 4765 56% 12 456 46 47%
c -  5.85  0 17 0 126 77141 3 937461 4172 56% 12 456 46 47%
c
c  seconds  switched      rate           trail   variables
c         MB  reductions    conflicts        glue    remaining
c          level    restarts      redundant  irredundant
c
c -  5.93  0 17 0 127 77141 3 948686 3990 56% 12 456 46 47%
c -  6.01  0 17 0 128 77141 3 959955 3957 56% 12 456 46 47%
c -  6.09  0 17 0 129 79067 3 971271 4309 56% 12 456 46 47%
c u  6.14  0 17 0 129 80296 3 979872 7234 56% 12 456 46 47%
c v  6.14  0 17 0 129 80296 3 979874 7210 56% 12 456 46 47%
c -  6.17  0 17 0 130 80777 3 982628 3757 56% 12 456 46 47%
c -  6.25  0 17 0 131 81064 3 994029 4352 56% 12 456 46 47%
c -  6.32  0 17 0 132 81072 3 1005475 4933 56% 12 456 46 47%
c -  6.39  0 17 0 133 81105 3 1016964 4365 56% 11 456 46 47%
c -  6.46  0 17 0 134 81436 3 1028498 4480 56% 11 456 46 47%
c u  6.49  0 17 0 134 82127 3 1032446 6146 56% 11 456 46 47%
c v  6.49  0 17 0 134 82127 3 1032448 6144 56% 11 456 46 47%
c -  6.55  0 17 0 135 82243 3 1040073 5096 56% 11 456 46 47%
c -  6.63  0 16 0 136 82386 2 1051691 5639 56% 11 456 46 47%
c -  6.71  0 17 0 137 84460 3 1063353 5554 56% 11 456 46 47%
c -  6.78  0 16 0 138 84801 3 1075059 4639 56% 11 456 46 47%
c u  6.85  0 16 0 138 84801 2 1086482 8318 56% 11 456 46 47%
c v  6.86  0 16 0 138 84801 2 1086484 8306 56% 11 456 46 47%
c -  6.87  0 16 0 139 84801 2 1086809 4306 56% 11 456 46 47%
c -  6.96  0 16 0 140 86684 3 1098599 4752 56% 11 456 46 47%
c
c  seconds  switched      rate            trail   variables
c         MB  reductions     conflicts        glue    remaining
c          level    restarts       redundant  irredundant
c
c -  7.04  0 17 0 141 88529 3 1110431 4357 56% 11 456 46 47%
c -  7.13  0 16 0 142 88529 3 1122305 4420 56% 11 456 46 47%
c -  7.20  0 16 0 143 88529 3 1134222 5043 56% 11 456 46 47%
c u  7.26  0 16 0 143 88708 3 1142147 7162 56% 11 456 46 47%
c v  7.26  0 16 0 143 88708 3 1142162 7136 56% 11 456 46 47%
c -  7.30  0 16 0 144 89438 3 1146181 4862 56% 11 456 46 47%
c -  7.39  0 16 0 145 91570 3 1158183 4847 56% 11 456 46 47%
c -  7.48  0 17 0 146 93172 3 1170227 4689 57% 11 456 46 47%
c -  7.56  0 17 0 147 93456 3 1182311 4880 56% 11 456 46 47%
c -  7.65  0 17 0 148 94754 3 1194435 5386 56% 11 456 46 47%
c u  7.69  0 17 0 148 95563 3 1199440 7119 56% 11 456 46 47%
c v  7.70  0 17 0 148 95563 3 1199447 7108 56% 11 456 46 47%
c -  7.75  0 17 0 149 96459 3 1206601 4990 56% 12 456 46 47%
c -  7.84  0 17 0 150 97025 3 1218808 4730 56% 11 456 46 47%
c -  7.92  0 17 0 151 98123 3 1231056 4402 56% 12 456 46 47%
c -  8.00  0 17 0 152 98305 3 1243345 4280 56% 12 456 46 47%
c -  8.09  0 17 0 153 99499 3 1255673 4844 56% 12 456 46 47%
c u  8.11  0 17 0 153 99738 3 1258160 5697 56% 12 456 46 47%
c v  8.12  0 17 0 153 99738 3 1258171 5679 56% 12 456 46 47%
c -  8.18  0 17 0 154 100480 3 1268042 4963 56% 12 456 46 47%
c
c  seconds  switched       rate            trail   variables
c         MB  reductions      conflicts        glue    remaining
c          level     restarts       redundant  irredundant
c
c -  8.27  0 16 0 155 100480 3 1280452 4634 56% 11 456 46 47%
c -  8.36  0 16 0 156 100493 3 1292901 4475 55% 11 456 46 47%
c -  8.44  0 16 0 157 100493 2 1305391 4693 55% 11 456 46 47%
c -  8.53  0 15 0 158 100493 2 1317922 4992 56% 11 456 46 47%
c u  8.54  0 15 0 158 100493 2 1318288 4866 56% 11 456 46 47%
c v  8.54  0 15 0 158 100493 2 1318305 4831 56% 11 456 46 47%
c -  8.62  0 15 0 159 101251 2 1330492 5057 56% 11 456 46 47%
c -  8.71  0 15 0 160 101852 2 1343103 5622 56% 11 456 46 47%
c -  8.82  0 16 0 161 103617 2 1355754 5907 56% 11 456 46 47%
c -  8.92  0 16 0 162 104262 2 1368443 6030 56% 11 456 46 47%
c u  9.01  0 16 0 162 104353 2 1379933 9454 55% 11 456 46 47%
c v  9.01  0 16 0 162 104353 2 1379940 9450 55% 11 456 46 47%
c -  9.04  0 15 0 163 104353 2 1381170 5723 55% 11 456 46 47%
c -  9.15  0 15 0 164 104571 2 1393938 5420 55% 11 456 46 47%
c -  9.26  0 15 0 165 104571 2 1406745 5663 55% 11 456 46 47%
c -  9.36  0 15 0 166 104571 2 1419590 5279 55% 10 456 46 47%
c -  9.47  0 15 0 167 106036 2 1432474 6279 56% 11 456 46 47%
c u  9.56  0 15 0 167 107711 2 1443315 9157 56% 11 456 46 47%
c v  9.57  0 15 0 167 107711 2 1443335 9117 56% 11 456 46 47%
c -  9.60  0 15 0 168 107927 2 1445396 4835 56% 11 456 46 47%
c
c  seconds  switched       rate            trail   variables
c         MB  reductions      conflicts        glue    remaining
c          level     restarts       redundant  irredundant
c
c -  9.70  0 15 0 169 108422 2 1458359 5136 56% 11 456 46 47%
c -  9.79  0 15 0 170 108895 2 1471359 6000 55% 11 456 46 47%
c -  9.89  0 15 0 171 109518 2 1484399 6165 55% 11 456 46 47%
c -  9.99  0 15 0 172 109806 2 1497476 6696 55% 11 456 46 47%
c u 10.08  0 15 0 172 109806 2 1508377 9867 55% 10 456 46 47%
c v 10.09  0 15 0 172 109806 2 1508389 9821 55% 10 456 46 47%
c - 10.12  0 15 0 173 109825 2 1510591 6580 55% 10 456 46 47%
c - 10.21  0 14 0 174 110105 2 1523745 7451 55% 10 456 46 47%
c - 10.32  0 15 0 175 111346 2 1536936 7351 55% 10 456 46 47%
c - 10.44  0 15 0 176 112807 2 1550164 7108 55% 11 456 46 47%
c - 10.54  0 15 0 177 113256 2 1563430 7154 55% 10 456 46 47%
c u 10.64  0 15 0 177 114305 2 1574877 11398 55% 11 456 46 47%
c v 10.65  0 15 0 177 114305 2 1574896 11369 55% 11 456 46 47%
c - 10.67  0 15 0 178 114305 2 1576734 7676 55% 11 456 46 47%
c - 10.78  0 14 0 179 114305 2 1590076 7156 55% 10 456 46 47%
c - 10.88  0 14 0 180 114529 2 1603455 7944 55% 10 456 46 47%
c - 10.98  0 14 0 181 114529 2 1616871 7778 54% 10 456 46 47%
c - 11.09  0 14 0 182 115400 2 1630324 8031 54% 10 456 46 47%
c u 11.21  0 14 0 182 116416 2 1643134 11491 55% 10 456 46 47%
c v 11.21  0 14 0 182 116416 2 1643137 11411 55% 10 456 46 47%
c
c  seconds  switched       rate            trail   variables
c         MB  reductions      conflicts        glue    remaining
c          level     restarts       redundant  irredundant
c
c - 11.24  0 14 0 183 116529 2 1643814 7024 55% 10 456 46 47%
c - 11.35  0 14 0 184 117326 2 1657341 7786 54% 10 456 46 47%
c - 11.47  0 14 0 185 118517 2 1670907 8608 54% 10 456 46 47%
c - 11.59  0 14 0 186 119073 2 1684509 8771 54% 10 456 46 47%
c - 11.71  0 14 0 187 119513 2 1698149 9356 54% 10 456 46 47%
c - 11.81  0 14 0 188 119513 2 1711823 9084 54% 10 456 46 47%
c u 11.83  0 14 0 188 119513 2 1712909 8544 54% 10 456 46 47%
c v 11.84  0 14 0 188 119513 2 1712945 8413 54% 10 456 46 47%
c - 11.97  0 14 0 189 121518 2 1725534 8254 54% 10 456 46 47%
c - 12.10  0 14 0 190 123094 2 1739282 7706 54% 10 456 46 47%
c - 12.22  0 14 0 191 123372 2 1753066 7913 54% 10 456 46 47%
c - 12.33  0 14 0 192 124793 2 1766887 8485 54% 10 456 46 47%
c - 12.45  0 14 0 193 125341 2 1780743 9018 54% 10 456 46 47%
c u 12.49  0 14 0 193 125615 2 1784291 9847 54% 10 456 46 47%
c v 12.50  0 14 0 193 125615 2 1784322 9761 54% 10 456 46 47%
c - 12.62  0 15 0 194 127165 2 1794636 8858 54% 10 456 46 47%
c - 12.73  0 14 0 195 127423 2 1808564 9252 54% 10 456 46 47%
c - 12.87  0 14 0 196 127678 2 1822528 9346 54% 10 456 46 47%
c - 13.02  0 14 0 197 129151 2 1836528 9635 54% 10 456 46 47%
c - 13.16  0 15 0 198 130496 2 1850565 9403 54% 10 456 46 47%
c
c  seconds  switched       rate             trail   variables
c         MB  reductions      conflicts         glue    remaining
c          level     restarts        redundant  irredundant
c
c u 13.23  0 14 0 198 130814 2 1857170 11191 54% 10 456 46 47%
c v 13.24  0 14 0 198 130814 2 1857196 11157 54% 10 456 46 47%
c - 13.31  0 14 0 199 131048 2 1864638 8932 54% 10 456 46 47%
c - 13.44  0 14 0 200 131727 2 1878744 9181 54% 10 456 46 47%
c - 13.57  0 14 0 201 132191 2 1892886 10044 53% 10 456 46 47%
c - 13.70  0 14 0 202 132721 2 1907063 10452 53% 10 456 46 47%
c - 13.85  0 14 0 203 133840 2 1921276 10557 53% 10 456 46 47%
c u 13.96  0 14 0 203 134413 2 1931647 13257 53% 10 456 46 47%
c v 13.97  0 14 0 203 134413 2 1931672 13177 53% 10 456 46 47%
c - 14.02  0 14 0 204 134642 2 1935524 9787 53% 10 456 46 47%
c - 14.16  0 14 0 205 135119 2 1949806 9799 53% 10 456 46 47%
c - 14.29  0 14 0 206 135909 2 1964123 9550 53% 10 456 46 47%
c - 14.40  0 13 0 207 136020 2 1978476 9620 53% 10 456 46 47%
c - 14.54  0 13 0 208 136770 2 1992864 9882 53% 10 456 46 47%
c u 14.69  0 13 0 208 137380 2 2007439 12219 52% 10 456 46 47%
c v 14.70  0 13 0 208 137380 2 2007479 12075 52% 10 456 46 47%
c - 14.71  0 13 0 209 137380 2 2007479 8019 52% 10 456 46 47%
c - 14.85  0 13 0 210 138228 2 2021936 9182 52% 10 456 46 47%
c - 14.98  0 13 0 211 138802 2 2036427 9471 52% 10 456 46 47%
c - 15.12  0 13 0 212 139226 2 2050953 9406 52% 10 456 46 47%
c
c  seconds  switched       rate            trail   variables
c         MB  reductions      conflicts        glue    remaining
c          level     restarts       redundant  irredundant
c
c - 15.25  0 13 0 213 139351 2 2065513 9800 52% 10 456 46 47%
c - 15.38  0 12 0 214 139470 2 2080107 10145 51% 9 456 46 47%
c u 15.45  0 12 0 214 139470 2 2084995 8000 51% 9 456 46 47%
c v 15.46  0 12 0 214 139470 2 2085114 7378 51% 9 456 46 47%
c w 15.46  0 12 0 214 139470 2 2085114 7378 51% 9 456 46 47%
c 2 15.46  0 12 0 214 139470 2 2085114 7378 51% 9 449 46 47%
c i 15.52  0 12 0 214 139470 2 2093547 9108 51% 9 449 45 46%
c - 15.54  0 12 0 215 139470 2 2094737 4702 51% 9 448 45 46%
c - 15.65  0 11 0 216 139533 1 2109399 7602 51% 9 448 45 46%
c i 15.66  0 11 0 216 139533 1 2110985 7909 51% 9 448 44 45%
c i 15.75  0 11 0 216 139533 1 2123516 10837 51% 8 448 43 44%
c - 15.78  0 11 0 217 139533 1 2124096 3330 51% 8 448 43 44%
c e 15.80  0 11 0 217 139533 1 2128023 4524 51% 8 392 42 43%
c i 15.82  0 11 0 217 139533 1 2130736 5047 51% 8 392 37 38%
c i 15.82  0 11 0 217 139533 1 2131217 5129 50% 8 392 36 37%
c i 15.82  0 11 0 217 139533 1 2131449 5173 50% 8 392 35 36%
c i 15.83  0 11 0 217 139533 1 2131631 5211 50% 8 392 34 35%
c i 15.83  0 11 0 217 139533 1 2131656 5216 50% 8 392 33 34%
c i 15.83  0 11 0 217 139533 1 2131686 5220 50% 8 392 32 33%
c i 15.83  0 11 0 217 139533 1 2131710 5223 50% 8 392 31 32%
c
c  seconds  switched       rate            trail  variables
c         MB  reductions      conflicts       glue    remaining
c          level     restarts       redundant irredundant
c
c i 15.83  0 11 0 217 139533 1 2131725 5222 50% 8 392 30 31%
c i 15.83  0 11 0 217 139533 1 2131733 5221 50% 8 392 29 30%
c i 15.83  0 11 0 217 139533 1 2131738 5222 50% 8 392 26 27%
c } 15.83  0 11 0 217 139533 1 2131740 5222 50% 8 392 24 25%
c 0 15.83  0 11 0 217 139533 1 2131740 5222 50% 8 392 24 25%
c
c ---- [ result ] ------------------------------------------------------------
c
s UNSATISFIABLE
c
c ---- [ profiling ] ---------------------------------------------------------
c
c          15.17   95.87 %  search
c          15.17   95.87 %  focused
c           1.66   10.51 %  reduce
c           0.65    4.13 %  simplify
c           0.64    4.04 %  probe
c           0.51    3.20 %  vivify
c           0.09    0.54 %  sweep
c           0.04    0.25 %  substitute
c           0.01    0.09 %  eliminate
c           0.00    0.02 %  transitive
c           0.00    0.01 %  failed
c           0.00    0.01 %  ternary
c           0.00    0.00 %  subsume
c           0.00    0.00 %  backbone
c           0.00    0.00 %  parse
c =============================================
c          15.83  100.00 %  total
c
c ---- [ statistics ] --------------------------------------------------------
c
c clauses_learned:                    1443974               68 %  conflicts
c conflicts:                          2131740           134692.63 per second
c decisions:                          4149669                1.95 per conflict
c forward_strengthened:                    24                0 %  strengthened
c kitten_conflicts:                     20662                1.09 per solved
c kitten_decisions:                    520806               27.42 per solved
c kitten_propagations:                 735987               38.75 per solved
c kitten_sat:                           18831               99 %  solved
c kitten_solved:                        18993 
c kitten_ticks:                       5747419                7.81 per propagation
c kitten_unknown:                          58                0 %  solved
c kitten_unsat:                           104                1 %  solved
c learned_units:                            1                1 %  variables
c literals_bumped:                   40416496               27.99 per clause
c literals_deduced:                  23725930               16.43 per clause
c literals_learned:                  19639953               13.60 per clause
c literals_minimized:                       0                0 %  deduced
c literals_minimize_shrunken:          202141                5 %  shrunken
c literals_shrunken:                  4085990               17 %  deduced
c propagations:                       9322126           589013    per second
c reductions:                             217             9824    interval
c restarts:                            139533               15.28 interval
c restarts_reused_trails:               94751               68 %  restarts
c strengthened:                          6579                7 %  checks
c subsumption_checks:                   90142 
c subsumed:                            654276              726 %  checks
c sweep:                                   60            35529    interval
c sweep_completed:                         28                2    sweeps
c sweep_equivalences:                       0                0    variables
c sweep_sat:                            18831              100 %  sweep_solved
c sweep_solved:                         18889               99 %  kitten_solved
c sweep_units:                              0                0 %  variables
c sweep_unsat:                              0                0 %  sweep_solved
c sweep_variables:                       1100             1134 %  variables
c
c ---- [ proof ] -------------------------------------------------------------
c
c proof_added:                        1938588               50 %  per line
c proof_bytes:                      198147281              189 MB 
c proof_deleted:                      1933208               50 %  per line
c
c ---- [ resources ] ---------------------------------------------------------
c
c maximum-resident-set-size:      10737418240 bytes      10240 MB
c process-time:                            16s              15.83 seconds
c
c ---- [ shutting down ] -----------------------------------------------------
c
c exit 20
-rw-r--r--  1 bryant  staff  198147281 Mar 11 03:17 chew-34-123458.drat
c parsing input formula with 96 variables and 256 clauses
c finished parsing
c detected empty clause; start verification via backward checking
c 256 of 256 clauses in core                            
c 1067410 of 1938589 lemmas in core using 7890449 resolution steps
c 0 RAT lemmas in core; 4707 redundant literals in core lemmas
s VERIFIED
c verification time: 15.267 seconds
